755
1 11 10
2 13 1
3 14 10
4 15 1
5 15 10
6 17 11
7 18 1
8 18 11
9 19 11
10 2 1
11 2 12
12 2 14
13 2 17
14 2 19
15 20 1
16 20 11
17 21 11
18 22 10
19 23 12
20 23 13
21 23 14
22 23 15
23 23 16
24 23 17
25 23 18
26 23 19
27 23 20
28 23 21
29 23 22
30 24 13
31 24 15
32 24 18
33 24 2
34 24 20
35 25 1
36 25 12
37 25 14
38 25 17
39 25 19
40 26 10
41 26 13
42 26 16
43 26 18
44 26 2
45 26 21
46 27 1
47 27 10
48 27 12
49 27 16
50 27 17
51 27 21
52 28 14
53 28 15
54 28 19
55 28 20
56 29 11
57 29 13
58 29 15
59 29 2
60 29 22
61 3 10
62 3 13
63 3 16
64 3 18
65 3 2
66 3 21
67 3 25
68 3 28
69 30 1
70 30 11
71 30 12
72 30 14
73 30 22
74 30 3
75 31 11
76 31 13
77 31 16
78 31 2
79 31 22
80 32 1
81 32 11
82 32 12
83 32 16
84 32 22
85 33 11
86 33 14
87 33 15
88 33 22
89 33 3
90 34 10
91 34 17
92 34 18
93 34 19
94 34 20
95 34 21
96 35 2
97 35 23
98 36 1
99 36 23
100 36 3
101 37 10
102 37 2
103 37 23
104 38 1
105 38 10
106 38 23
107 39 23
108 39 3
109 4 1
110 4 10
111 4 12
112 4 16
113 4 17
114 4 21
115 4 24
116 4 28
117 4 29
118 4 33
119 4 35
120 4 39
121 40 11
122 40 2
123 40 23
124 40 4
125 41 1
126 41 11
127 41 23
128 41 3
129 42 11
130 42 2
131 42 23
132 43 1
133 43 11
134 43 23
135 44 11
136 44 23
137 44 3
138 44 4
139 45 10
140 45 23
141 46 12
142 46 13
143 46 14
144 46 15
145 46 16
146 46 17
147 46 18
148 46 19
149 46 20
150 46 21
151 46 22
152 47 24
153 47 25
154 47 26
155 47 27
156 47 28
157 47 29
158 47 30
159 47 31
160 47 32
161 47 33
162 47 34
163 47 35
164 47 36
165 47 37
166 47 38
167 47 39
168 47 40
169 47 41
170 47 42
171 47 43
172 47 44
173 47 45
174 47 46
175 48 13
176 48 15
177 48 18
178 48 2
179 48 20
180 48 25
181 48 27
182 48 30
183 48 32
184 48 36
185 48 38
186 48 4
187 48 41
188 48 43
189 49 1
190 49 12
191 49 14
192 49 17
193 49 19
194 49 24
195 49 26
196 49 29
197 49 3
198 49 31
199 49 35
200 49 37
201 49 40
202 49 42
203 5 14
204 5 15
205 5 19
206 5 20
207 5 26
208 5 27
209 5 3
210 5 31
211 5 32
212 5 37
213 5 38
214 5 4
215 5 42
216 5 43
217 50 10
218 50 13
219 50 16
220 50 18
221 50 2
222 50 21
223 50 25
224 50 28
225 50 30
226 50 33
227 50 36
228 50 39
229 50 41
230 50 44
231 50 5
232 51 1
233 51 10
234 51 12
235 51 16
236 51 17
237 51 21
238 51 24
239 51 28
240 51 29
241 51 33
242 51 35
243 51 39
244 51 40
245 51 44
246 51 5
247 52 14
248 52 15
249 52 19
250 52 20
251 52 26
252 52 27
253 52 3
254 52 31
255 52 32
256 52 37
257 52 38
258 52 4
259 52 42
260 52 43
261 53 11
262 53 13
263 53 15
264 53 2
265 53 22
266 53 25
267 53 27
268 53 34
269 53 36
270 53 38
271 53 4
272 53 45
273 54 1
274 54 11
275 54 12
276 54 14
277 54 22
278 54 24
279 54 26
280 54 3
281 54 34
282 54 35
283 54 37
284 54 45
285 55 11
286 55 13
287 55 16
288 55 2
289 55 22
290 55 25
291 55 28
292 55 34
293 55 36
294 55 39
295 55 45
296 55 5
297 56 1
298 56 11
299 56 12
300 56 16
301 56 22
302 56 24
303 56 28
304 56 34
305 56 35
306 56 39
307 56 45
308 56 5
309 57 11
310 57 14
311 57 15
312 57 22
313 57 26
314 57 27
315 57 3
316 57 34
317 57 37
318 57 38
319 57 4
320 57 45
321 58 10
322 58 17
323 58 18
324 58 19
325 58 20
326 58 21
327 58 29
328 58 30
329 58 31
330 58 32
331 58 33
332 58 40
333 58 41
334 58 42
335 58 43
336 58 44
337 59 2
338 59 23
339 59 25
340 59 27
341 59 30
342 59 32
343 59 4
344 59 46
345 6 11
346 6 13
347 6 15
348 6 2
349 6 22
350 6 25
351 6 27
352 6 34
353 6 36
354 6 38
355 6 4
356 6 45
357 6 49
358 6 51
359 6 58
360 60 1
361 60 23
362 60 24
363 60 26
364 60 29
365 60 3
366 60 31
367 60 46
368 60 6
369 61 10
370 61 2
371 61 23
372 61 25
373 61 28
374 61 30
375 61 33
376 61 46
377 61 5
378 62 1
379 62 10
380 62 23
381 62 24
382 62 28
383 62 29
384 62 33
385 62 46
386 62 5
387 62 6
388 63 23
389 63 26
390 63 27
391 63 3
392 63 31
393 63 32
394 63 4
395 63 46
396 64 11
397 64 2
398 64 23
399 64 25
400 64 27
401 64 34
402 64 4
403 64 46
404 65 1
405 65 11
406 65 23
407 65 24
408 65 26
409 65 3
410 65 34
411 65 46
412 66 11
413 66 2
414 66 23
415 66 25
416 66 28
417 66 34
418 66 46
419 66 5
420 67 1
421 67 11
422 67 23
423 67 24
424 67 28
425 67 34
426 67 46
427 67 5
428 68 11
429 68 23
430 68 26
431 68 27
432 68 3
433 68 34
434 68 4
435 68 46
436 69 10
437 69 23
438 69 29
439 69 30
440 69 31
441 69 32
442 69 33
443 69 46
444 69 6
445 7 1
446 7 11
447 7 12
448 7 14
449 7 22
450 7 24
451 7 26
452 7 3
453 7 34
454 7 35
455 7 37
456 7 45
457 7 48
458 7 50
459 7 58
460 7 59
461 7 61
462 7 69
463 70 12
464 70 13
465 70 14
466 70 15
467 70 16
468 70 17
469 70 18
470 70 19
471 70 20
472 70 21
473 70 22
474 70 35
475 70 36
476 70 37
477 70 38
478 70 39
479 70 40
480 70 41
481 70 42
482 70 43
483 70 44
484 70 45
485 71 13
486 71 15
487 71 18
488 71 2
489 71 20
490 71 4
491 71 47
492 71 7
493 72 1
494 72 12
495 72 14
496 72 17
497 72 19
498 72 3
499 72 47
500 72 6
501 73 10
502 73 13
503 73 16
504 73 18
505 73 2
506 73 21
507 73 47
508 73 5
509 73 7
510 74 1
511 74 10
512 74 12
513 74 16
514 74 17
515 74 21
516 74 47
517 74 5
518 74 6
519 75 14
520 75 15
521 75 19
522 75 20
523 75 3
524 75 4
525 75 47
526 76 11
527 76 13
528 76 15
529 76 2
530 76 22
531 76 4
532 76 47
533 77 1
534 77 11
535 77 12
536 77 14
537 77 22
538 77 3
539 77 47
540 78 11
541 78 13
542 78 16
543 78 2
544 78 22
545 78 47
546 78 5
547 79 1
548 79 11
549 79 12
550 79 16
551 79 22
552 79 47
553 79 5
554 8 11
555 8 13
556 8 16
557 8 2
558 8 22
559 8 25
560 8 28
561 8 34
562 8 36
563 8 39
564 8 45
565 8 49
566 8 5
567 8 52
568 8 58
569 8 60
570 8 63
571 8 69
572 8 72
573 8 75
574 80 11
575 80 14
576 80 15
577 80 22
578 80 3
579 80 4
580 80 47
581 81 10
582 81 17
583 81 18
584 81 19
585 81 20
586 81 21
587 81 47
588 81 6
589 81 7
590 81 8
591 82 2
592 82 23
593 82 4
594 82 47
595 82 7
596 83 1
597 83 23
598 83 3
599 83 47
600 83 6
601 83 8
602 84 10
603 84 2
604 84 23
605 84 47
606 84 5
607 84 7
608 85 1
609 85 10
610 85 23
611 85 47
612 85 5
613 85 6
614 86 23
615 86 3
616 86 4
617 86 47
618 86 8
619 87 11
620 87 2
621 87 23
622 87 4
623 87 47
624 88 1
625 88 11
626 88 23
627 88 3
628 88 47
629 89 11
630 89 2
631 89 23
632 89 47
633 89 5
634 9 1
635 9 11
636 9 12
637 9 16
638 9 22
639 9 24
640 9 28
641 9 34
642 9 35
643 9 39
644 9 45
645 9 48
646 9 5
647 9 52
648 9 58
649 9 59
650 9 63
651 9 69
652 9 71
653 9 75
654 9 81
655 9 82
656 9 86
657 90 1
658 90 11
659 90 23
660 90 47
661 90 5
662 91 11
663 91 23
664 91 3
665 91 4
666 91 47
667 92 10
668 92 23
669 92 47
670 92 6
671 92 7
672 92 8
673 92 9
674 93 12
675 93 13
676 93 14
677 93 15
678 93 16
679 93 17
680 93 18
681 93 19
682 93 20
683 93 21
684 93 22
685 93 47
686 94 24
687 94 25
688 94 26
689 94 27
690 94 28
691 94 29
692 94 30
693 94 31
694 94 32
695 94 33
696 94 34
697 94 35
698 94 36
699 94 37
700 94 38
701 94 39
702 94 40
703 94 41
704 94 42
705 94 43
706 94 44
707 94 45
708 94 46
709 95 48
710 95 49
711 95 50
712 95 51
713 95 52
714 95 53
715 95 54
716 95 55
717 95 56
718 95 57
719 95 58
720 95 59
721 95 60
722 95 61
723 95 62
724 95 63
725 95 64
726 95 65
727 95 66
728 95 67
729 95 68
730 95 69
731 95 70
732 95 71
733 95 72
734 95 73
735 95 74
736 95 75
737 95 76
738 95 77
739 95 78
740 95 79
741 95 80
742 95 81
743 95 82
744 95 83
745 95 84
746 95 85
747 95 86
748 95 87
749 95 88
750 95 89
751 95 90
752 95 91
753 95 92
754 95 93
755 95 94